
Gurobi 11.0.1 (win64) logging started Sun Mar 31 07:13:24 2024

Set parameter LogFile to value "C:\Projetos\Job_Rotation_Algorithms\Outputs\GurobiLogs\gurobi_log-output-14_hes-c105-CostaMirallesModel-NoExtraConstraint-2.log"
Gurobi Optimizer version 11.0.1 build v11.0.1rc0 (win64 - Windows 10.0 (19045.2))

CPU model: 11th Gen Intel(R) Core(TM) i7-1165G7 @ 2.80GHz, instruction set [SSE2|AVX|AVX2|AVX512]
Thread count: 4 physical cores, 8 logical processors, using up to 1 threads

WLS license 901039 - registered to Bitka Analytics
Optimize a model with 472 rows, 871 columns and 6991 nonzeros
Model fingerprint: 0xaae9e4aa
Variable types: 2 continuous, 869 integer (869 binary)
Coefficient statistics:
  Matrix range     [1e+00, 1e+02]
  Objective range  [1e+00, 1e+00]
  Bounds range     [1e+00, 2e+02]
  RHS range        [1e+00, 2e+02]
Presolve removed 151 rows and 131 columns
Presolve time: 0.03s
Presolved: 321 rows, 740 columns, 4365 nonzeros
Variable types: 0 continuous, 740 integer (739 binary)

Root relaxation: objective 5.600000e+01, 349 iterations, 0.00 seconds (0.00 work units)

    Nodes    |    Current Node    |     Objective Bounds      |     Work
 Expl Unexpl |  Obj  Depth IntInf | Incumbent    BestBd   Gap | It/Node Time

     0     0   56.00000    0   14          -   56.00000      -     -    0s
     0     0   56.00000    0   92          -   56.00000      -     -    0s
     0     0   56.00000    0   84          -   56.00000      -     -    0s
     0     0   56.00000    0   25          -   56.00000      -     -    0s
     0     0   56.00000    0   64          -   56.00000      -     -    0s
     0     0   56.00000    0   27          -   56.00000      -     -    0s
     0     0   56.00000    0   56          -   56.00000      -     -    0s
     0     0   56.00000    0   15          -   56.00000      -     -    0s
     0     0   56.00000    0   13          -   56.00000      -     -    0s
     0     2   56.00000    0   12          -   56.00000      -     -    0s
H  546   112                      46.0000000   56.00000  21.7%  73.4    1s
* 1183   157              21      47.0000000   56.00000  19.1%  87.1    3s

Cutting planes:
  Gomory: 2
  Cover: 890
  Implied bound: 14
  Clique: 101
  MIR: 42
  StrongCG: 12
  GUB cover: 11
  Inf proof: 4
  Zero half: 5
  RLT: 6
  Relax-and-lift: 1

Explored 1688 nodes (145490 simplex iterations) in 4.93 seconds (4.38 work units)
Thread count was 1 (of 8 available processors)

Solution count 2: 47 46 

Optimal solution found (tolerance 1.00e-03)
Best objective 4.700000000000e+01, best bound 4.700000000000e+01, gap 0.0000%
